examples/con/graph-20-43.param
$ generated by rg.pl with seed 43
letting n be 20
$ 33 edges
letting E be {{3,7},{7,17},{2,18},{8,18},{11,19},{7,14},{3,18},{17,18},{12,14},{3,9},{3,13},{12,19},{8,10},{3,12},{1,9},{12,13},{2,20},{6,13},{16,19},{15,17},{2,15},{12,16},{2,5},{13,20},{4,7},{1,5},{5,11},{1,14},{3,19},{5,14},{9,15},{4,9},{1,17}}
